(set-info :smt-lib-version 2.6)
(set-logic UF)
(set-info :source |Benchmarks from the paper: "Extending Sledgehammer with SMT Solvers" by Jasmin Blanchette, Sascha Bohme, and Lawrence C. Paulson, CADE 2011.  Translated to SMT2 by Andrew Reynolds and Morgan Deters.|)
(set-info :category "industrial")
(set-info :status unsat)
(declare-sort S1 0)
(declare-sort S2 0)
(declare-sort S3 0)
(declare-sort S4 0)
(declare-sort S5 0)
(declare-sort S6 0)
(declare-sort S7 0)
(declare-sort S8 0)
(declare-sort S9 0)
(declare-sort S10 0)
(declare-sort S11 0)
(declare-sort S12 0)
(declare-sort S13 0)
(declare-sort S14 0)
(declare-sort S15 0)
(declare-sort S16 0)
(declare-sort S17 0)
(declare-sort S18 0)
(declare-sort S19 0)
(declare-sort S20 0)
(declare-sort S21 0)
(declare-sort S22 0)
(declare-sort S23 0)
(declare-sort S24 0)
(declare-sort S25 0)
(declare-sort S26 0)
(declare-sort S27 0)
(declare-sort S28 0)
(declare-sort S29 0)
(declare-sort S30 0)
(declare-sort S31 0)
(declare-sort S32 0)
(declare-sort S33 0)
(declare-sort S34 0)
(declare-sort S35 0)
(declare-sort S36 0)
(declare-sort S37 0)
(declare-sort S38 0)
(declare-sort S39 0)
(declare-sort S40 0)
(declare-sort S41 0)
(declare-sort S42 0)
(declare-sort S43 0)
(declare-sort S44 0)
(declare-sort S45 0)
(declare-sort S46 0)
(declare-sort S47 0)
(declare-sort S48 0)
(declare-sort S49 0)
(declare-sort S50 0)
(declare-sort S51 0)
(declare-sort S52 0)
(declare-sort S53 0)
(declare-sort S54 0)
(declare-sort S55 0)
(declare-sort S56 0)
(declare-sort S57 0)
(declare-sort S58 0)
(declare-sort S59 0)
(declare-sort S60 0)
(declare-sort S61 0)
(declare-sort S62 0)
(declare-sort S63 0)
(declare-sort S64 0)
(declare-sort S65 0)
(declare-sort S66 0)
(declare-fun f1 () S1)
(declare-fun f2 () S1)
(declare-fun f3 (S3 S4) S1)
(declare-fun f4 (S5 S4) S3)
(declare-fun f5 () S5)
(declare-fun f6 (S6 S2) S4)
(declare-fun f7 () S6)
(declare-fun f8 () S4)
(declare-fun f9 (S7 S2) S2)
(declare-fun f10 (S8 S9) S7)
(declare-fun f11 () S8)
(declare-fun f12 () S9)
(declare-fun f13 () S5)
(declare-fun f14 () S4)
(declare-fun f15 (S10 S4) S4)
(declare-fun f16 () S10)
(declare-fun f17 () S2)
(declare-fun f18 (S12 S11) S1)
(declare-fun f19 (S13 S11) S12)
(declare-fun f20 () S13)
(declare-fun f21 () S9)
(declare-fun f22 (S14 S11) S11)
(declare-fun f23 (S15 S16) S14)
(declare-fun f24 () S15)
(declare-fun f25 () S16)
(declare-fun f26 () S11)
(declare-fun f27 (S18 S17) S17)
(declare-fun f28 (S19 S20) S18)
(declare-fun f29 () S19)
(declare-fun f30 () S20)
(declare-fun f31 () S17)
(declare-fun f32 (S21 S22) S10)
(declare-fun f33 () S21)
(declare-fun f34 () S22)
(declare-fun f35 (S24 S23) S23)
(declare-fun f36 (S25 S26) S24)
(declare-fun f37 () S25)
(declare-fun f38 () S26)
(declare-fun f39 () S23)
(declare-fun f40 (S28 S27) S27)
(declare-fun f41 (S29 S30) S28)
(declare-fun f42 () S29)
(declare-fun f43 () S30)
(declare-fun f44 () S27)
(declare-fun f45 (S32 S31) S31)
(declare-fun f46 (S33 S34) S32)
(declare-fun f47 () S33)
(declare-fun f48 () S34)
(declare-fun f49 () S31)
(declare-fun f50 (S36 S35) S35)
(declare-fun f51 (S37 S38) S36)
(declare-fun f52 () S37)
(declare-fun f53 () S38)
(declare-fun f54 () S35)
(declare-fun f55 (S39 S16) S16)
(declare-fun f56 (S40 S35) S39)
(declare-fun f57 () S40)
(declare-fun f58 (S41 S22) S22)
(declare-fun f59 (S42 S31) S41)
(declare-fun f60 () S42)
(declare-fun f61 (S43 S20) S20)
(declare-fun f62 (S44 S27) S43)
(declare-fun f63 () S44)
(declare-fun f64 (S45 S9) S9)
(declare-fun f65 (S46 S23) S45)
(declare-fun f66 () S46)
(declare-fun f67 () S13)
(declare-fun f68 (S47 S9) S11)
(declare-fun f69 (S48 S2) S47)
(declare-fun f70 () S48)
(declare-fun f71 (S49 S20) S11)
(declare-fun f72 (S50 S17) S49)
(declare-fun f73 () S50)
(declare-fun f74 (S51 S22) S11)
(declare-fun f75 (S52 S4) S51)
(declare-fun f76 () S52)
(declare-fun f77 (S53 S26) S11)
(declare-fun f78 (S54 S23) S53)
(declare-fun f79 () S54)
(declare-fun f80 (S55 S30) S11)
(declare-fun f81 (S56 S27) S55)
(declare-fun f82 () S56)
(declare-fun f83 (S57 S34) S11)
(declare-fun f84 (S58 S31) S57)
(declare-fun f85 () S58)
(declare-fun f86 (S59 S31) S11)
(declare-fun f87 (S60 S22) S59)
(declare-fun f88 () S60)
(declare-fun f89 (S61 S27) S11)
(declare-fun f90 (S62 S20) S61)
(declare-fun f91 () S62)
(declare-fun f92 (S63 S23) S11)
(declare-fun f93 (S64 S9) S63)
(declare-fun f94 () S64)
(declare-fun f95 () S63)
(declare-fun f96 () S61)
(declare-fun f97 () S59)
(declare-fun f98 (S65 S35) S11)
(declare-fun f99 () S65)
(declare-fun f100 (S66 S16) S11)
(declare-fun f101 () S66)
(declare-fun f102 () S51)
(declare-fun f103 () S49)
(declare-fun f104 () S47)
(assert (not (= f1 f2)))
(assert (not (exists ((?v0 S2)) (forall ((?v1 S2)) (let ((?v_0 (f10 f11 f12))) (=> (= (f3 (f4 f5 (f6 f7 ?v1)) f8) f1) (= (f3 (f4 f5 (f6 f7 (f9 ?v_0 ?v0))) (f6 f7 (f9 ?v_0 ?v1))) f1)))))))
(assert (= (f3 (f4 f13 f8) f14) f1))
(assert (not (= (f3 (f4 f5 f14) f8) f1)))
(assert (forall ((?v0 S4) (?v1 S9)) (exists ((?v2 S4)) (and (= (f3 (f4 f13 f14) ?v2) f1) (forall ((?v3 S2)) (=> (= (f3 (f4 f5 (f6 f7 ?v3)) ?v0) f1) (= (f3 (f4 f5 (f6 f7 (f9 (f10 f11 ?v1) ?v3))) ?v2) f1)))))))
(assert (forall ((?v0 S4)) (= (= (f3 (f4 f13 f14) (f15 f16 ?v0)) f1) (not (= ?v0 f14)))))
(assert (forall ((?v0 S2)) (= (= (f3 (f4 f13 f14) (f6 f7 ?v0)) f1) (not (= ?v0 f17)))))
(assert (forall ((?v0 S4)) (= (= (f3 (f4 f5 (f15 f16 ?v0)) f14) f1) (= ?v0 f14))))
(assert (forall ((?v0 S2)) (= (= (f3 (f4 f5 (f6 f7 ?v0)) f14) f1) (= ?v0 f17))))
(assert (forall ((?v0 S2)) (not (= (f3 (f4 f13 (f6 f7 ?v0)) f14) f1))))
(assert (forall ((?v0 S4)) (not (= (f3 (f4 f13 (f15 f16 ?v0)) f14) f1))))
(assert (forall ((?v0 S2)) (= (f3 (f4 f5 f14) (f6 f7 ?v0)) f1)))
(assert (forall ((?v0 S4)) (= (f3 (f4 f5 f14) (f15 f16 ?v0)) f1)))
(assert (forall ((?v0 S4)) (= (= (f15 f16 ?v0) f14) (= ?v0 f14))))
(assert (forall ((?v0 S2)) (= (= (f6 f7 ?v0) f14) (= ?v0 f17))))
(assert (= (f15 f16 f14) f14))
(assert (= (f6 f7 f17) f14))
(assert (forall ((?v0 S11)) (= (f18 (f19 f20 ?v0) ?v0) f1)))
(assert (forall ((?v0 S4)) (= (f3 (f4 f5 ?v0) ?v0) f1)))
(assert (forall ((?v0 S2)) (= (f9 (f10 f11 f21) ?v0) f17)))
(assert (forall ((?v0 S11)) (= (f22 (f23 f24 f25) ?v0) f26)))
(assert (forall ((?v0 S17)) (= (f27 (f28 f29 f30) ?v0) f31)))
(assert (forall ((?v0 S4)) (= (f15 (f32 f33 f34) ?v0) f14)))
(assert (forall ((?v0 S23)) (= (f35 (f36 f37 f38) ?v0) f39)))
(assert (forall ((?v0 S27)) (= (f40 (f41 f42 f43) ?v0) f44)))
(assert (forall ((?v0 S31)) (= (f45 (f46 f47 f48) ?v0) f49)))
(assert (forall ((?v0 S35)) (= (f50 (f51 f52 f53) ?v0) f54)))
(assert (forall ((?v0 S16)) (= (f55 (f56 f57 f54) ?v0) f25)))
(assert (forall ((?v0 S22)) (= (f58 (f59 f60 f49) ?v0) f34)))
(assert (forall ((?v0 S20)) (= (f61 (f62 f63 f44) ?v0) f30)))
(assert (forall ((?v0 S9)) (= (f64 (f65 f66 f39) ?v0) f21)))
(assert (forall ((?v0 S4) (?v1 S4)) (= (= (f3 (f4 f13 ?v0) ?v1) f1) (and (= (f3 (f4 f5 ?v0) ?v1) f1) (not (= ?v0 ?v1))))))
(assert (forall ((?v0 S4) (?v1 S4)) (= (= (f3 (f4 f5 ?v0) ?v1) f1) (or (= (f3 (f4 f13 ?v0) ?v1) f1) (= ?v0 ?v1)))))
(assert (forall ((?v0 S11) (?v1 S11)) (= (not (= (f18 (f19 f67 ?v0) ?v1) f1)) (= (f18 (f19 f20 ?v1) ?v0) f1))))
(assert (forall ((?v0 S4) (?v1 S4)) (= (not (= (f3 (f4 f13 ?v0) ?v1) f1)) (= (f3 (f4 f5 ?v1) ?v0) f1))))
(assert (forall ((?v0 S9)) (= (= (f10 f11 ?v0) (f10 f11 f21)) (= ?v0 f21))))
(assert (forall ((?v0 S27)) (= (= (f62 f63 ?v0) (f62 f63 f44)) (= ?v0 f44))))
(assert (forall ((?v0 S31)) (= (= (f59 f60 ?v0) (f59 f60 f49)) (= ?v0 f49))))
(assert (forall ((?v0 S22)) (= (= (f32 f33 ?v0) (f32 f33 f34)) (= ?v0 f34))))
(assert (forall ((?v0 S20)) (= (= (f28 f29 ?v0) (f28 f29 f30)) (= ?v0 f30))))
(assert (forall ((?v0 S11) (?v1 S11)) (=> (=> (= (f18 (f19 f20 ?v0) ?v1) f1) false) (=> (=> (= (f18 (f19 f20 ?v1) ?v0) f1) false) false))))
(assert (forall ((?v0 S4) (?v1 S4)) (=> (=> (= (f3 (f4 f5 ?v0) ?v1) f1) false) (=> (=> (= (f3 (f4 f5 ?v1) ?v0) f1) false) false))))
(assert (forall ((?v0 S11) (?v1 S11) (?v2 S11)) (let ((?v_0 (f19 f20 ?v2))) (=> (= (f18 (f19 f20 ?v0) ?v1) f1) (=> (= (f18 ?v_0 ?v0) f1) (= (f18 ?v_0 ?v1) f1))))))
(assert (forall ((?v0 S4) (?v1 S4) (?v2 S4)) (let ((?v_0 (f4 f5 ?v2))) (=> (= (f3 (f4 f5 ?v0) ?v1) f1) (=> (= (f3 ?v_0 ?v0) f1) (= (f3 ?v_0 ?v1) f1))))))
(assert (forall ((?v0 S11) (?v1 S11)) (=> (= (f18 (f19 f20 ?v0) ?v1) f1) (=> (= (f18 (f19 f20 ?v1) ?v0) f1) (= ?v1 ?v0)))))
(assert (forall ((?v0 S4) (?v1 S4)) (=> (= (f3 (f4 f5 ?v0) ?v1) f1) (=> (= (f3 (f4 f5 ?v1) ?v0) f1) (= ?v1 ?v0)))))
(assert (forall ((?v0 S11) (?v1 S11) (?v2 S11)) (let ((?v_0 (f19 f20 ?v0))) (=> (= (f18 ?v_0 ?v1) f1) (=> (= (f18 (f19 f20 ?v1) ?v2) f1) (= (f18 ?v_0 ?v2) f1))))))
(assert (forall ((?v0 S4) (?v1 S4) (?v2 S4)) (let ((?v_0 (f4 f5 ?v0))) (=> (= (f3 ?v_0 ?v1) f1) (=> (= (f3 (f4 f5 ?v1) ?v2) f1) (= (f3 ?v_0 ?v2) f1))))))
(assert (forall ((?v0 S11) (?v1 S11)) (=> (= (f18 (f19 f20 ?v0) ?v1) f1) (=> (= (f18 (f19 f20 ?v1) ?v0) f1) (= ?v0 ?v1)))))
(assert (forall ((?v0 S4) (?v1 S4)) (=> (= (f3 (f4 f5 ?v0) ?v1) f1) (=> (= (f3 (f4 f5 ?v1) ?v0) f1) (= ?v0 ?v1)))))
(assert (forall ((?v0 S11) (?v1 S11) (?v2 S11)) (=> (= (f18 (f19 f20 ?v0) ?v1) f1) (=> (= ?v0 ?v2) (= (f18 (f19 f20 ?v2) ?v1) f1)))))
(assert (forall ((?v0 S4) (?v1 S4) (?v2 S4)) (=> (= (f3 (f4 f5 ?v0) ?v1) f1) (=> (= ?v0 ?v2) (= (f3 (f4 f5 ?v2) ?v1) f1)))))
(assert (forall ((?v0 S11) (?v1 S11) (?v2 S11)) (let ((?v_0 (f19 f20 ?v0))) (=> (= (f18 ?v_0 ?v1) f1) (=> (= ?v1 ?v2) (= (f18 ?v_0 ?v2) f1))))))
(assert (forall ((?v0 S4) (?v1 S4) (?v2 S4)) (let ((?v_0 (f4 f5 ?v0))) (=> (= (f3 ?v_0 ?v1) f1) (=> (= ?v1 ?v2) (= (f3 ?v_0 ?v2) f1))))))
(assert (forall ((?v0 S11) (?v1 S11) (?v2 S11)) (let ((?v_0 (f19 f20 ?v2))) (=> (= ?v0 ?v1) (=> (= (f18 ?v_0 ?v1) f1) (= (f18 ?v_0 ?v0) f1))))))
(assert (forall ((?v0 S4) (?v1 S4) (?v2 S4)) (let ((?v_0 (f4 f5 ?v2))) (=> (= ?v0 ?v1) (=> (= (f3 ?v_0 ?v1) f1) (= (f3 ?v_0 ?v0) f1))))))
(assert (forall ((?v0 S11) (?v1 S11) (?v2 S11)) (=> (= ?v0 ?v1) (=> (= (f18 (f19 f20 ?v1) ?v2) f1) (= (f18 (f19 f20 ?v0) ?v2) f1)))))
(assert (forall ((?v0 S4) (?v1 S4) (?v2 S4)) (=> (= ?v0 ?v1) (=> (= (f3 (f4 f5 ?v1) ?v2) f1) (= (f3 (f4 f5 ?v0) ?v2) f1)))))
(assert (forall ((?v0 S11) (?v1 S11)) (=> (= (f18 (f19 f20 ?v0) ?v1) f1) (= (= (f18 (f19 f20 ?v1) ?v0) f1) (= ?v1 ?v0)))))
(assert (forall ((?v0 S4) (?v1 S4)) (=> (= (f3 (f4 f5 ?v0) ?v1) f1) (= (= (f3 (f4 f5 ?v1) ?v0) f1) (= ?v1 ?v0)))))
(assert (forall ((?v0 S11) (?v1 S11)) (=> (= ?v0 ?v1) (= (f18 (f19 f20 ?v0) ?v1) f1))))
(assert (forall ((?v0 S4) (?v1 S4)) (=> (= ?v0 ?v1) (= (f3 (f4 f5 ?v0) ?v1) f1))))
(assert (forall ((?v0 S11) (?v1 S11)) (= (= ?v0 ?v1) (and (= (f18 (f19 f20 ?v0) ?v1) f1) (= (f18 (f19 f20 ?v1) ?v0) f1)))))
(assert (forall ((?v0 S4) (?v1 S4)) (= (= ?v0 ?v1) (and (= (f3 (f4 f5 ?v0) ?v1) f1) (= (f3 (f4 f5 ?v1) ?v0) f1)))))
(assert (forall ((?v0 S11) (?v1 S11)) (or (= (f18 (f19 f20 ?v0) ?v1) f1) (= (f18 (f19 f20 ?v1) ?v0) f1))))
(assert (forall ((?v0 S4) (?v1 S4)) (or (= (f3 (f4 f5 ?v0) ?v1) f1) (= (f3 (f4 f5 ?v1) ?v0) f1))))
(assert (forall ((?v0 S11) (?v1 S11)) (=> (=> (= (f18 (f19 f67 ?v0) ?v1) f1) false) (=> (=> (= ?v0 ?v1) false) (=> (=> (= (f18 (f19 f67 ?v1) ?v0) f1) false) false)))))
(assert (forall ((?v0 S4) (?v1 S4)) (=> (=> (= (f3 (f4 f13 ?v0) ?v1) f1) false) (=> (=> (= ?v0 ?v1) false) (=> (=> (= (f3 (f4 f13 ?v1) ?v0) f1) false) false)))))
(assert (forall ((?v0 S11) (?v1 S11)) (=> (= (f18 (f19 f67 ?v0) ?v1) f1) (=> (=> (not false) (= (f18 (f19 f67 ?v1) ?v0) f1)) false))))
(assert (forall ((?v0 S4) (?v1 S4)) (=> (= (f3 (f4 f13 ?v0) ?v1) f1) (=> (=> (not false) (= (f3 (f4 f13 ?v1) ?v0) f1)) false))))
(assert (forall ((?v0 S11) (?v1 S11) (?v2 S11)) (let ((?v_0 (f19 f67 ?v2))) (=> (= (f18 (f19 f67 ?v0) ?v1) f1) (=> (= (f18 ?v_0 ?v0) f1) (= (f18 ?v_0 ?v1) f1))))))
(assert (forall ((?v0 S4) (?v1 S4) (?v2 S4)) (let ((?v_0 (f4 f13 ?v2))) (=> (= (f3 (f4 f13 ?v0) ?v1) f1) (=> (= (f3 ?v_0 ?v0) f1) (= (f3 ?v_0 ?v1) f1))))))
(assert (forall ((?v0 S11) (?v1 S11) (?v2 S11)) (let ((?v_0 (f19 f67 ?v0))) (=> (= (f18 ?v_0 ?v1) f1) (=> (= (f18 (f19 f67 ?v1) ?v2) f1) (= (f18 ?v_0 ?v2) f1))))))
(assert (forall ((?v0 S4) (?v1 S4) (?v2 S4)) (let ((?v_0 (f4 f13 ?v0))) (=> (= (f3 ?v_0 ?v1) f1) (=> (= (f3 (f4 f13 ?v1) ?v2) f1) (= (f3 ?v_0 ?v2) f1))))))
(assert (forall ((?v0 S11) (?v1 S11) (?v2 S11)) (=> (= (f18 (f19 f67 ?v0) ?v1) f1) (=> (= ?v0 ?v2) (= (f18 (f19 f67 ?v2) ?v1) f1)))))
(assert (forall ((?v0 S4) (?v1 S4) (?v2 S4)) (=> (= (f3 (f4 f13 ?v0) ?v1) f1) (=> (= ?v0 ?v2) (= (f3 (f4 f13 ?v2) ?v1) f1)))))
(assert (forall ((?v0 S11) (?v1 S11) (?v2 S11)) (let ((?v_0 (f19 f67 ?v0))) (=> (= (f18 ?v_0 ?v1) f1) (=> (= ?v1 ?v2) (= (f18 ?v_0 ?v2) f1))))))
(assert (forall ((?v0 S4) (?v1 S4) (?v2 S4)) (let ((?v_0 (f4 f13 ?v0))) (=> (= (f3 ?v_0 ?v1) f1) (=> (= ?v1 ?v2) (= (f3 ?v_0 ?v2) f1))))))
(assert (forall ((?v0 S11) (?v1 S11) (?v2 S11)) (let ((?v_0 (f19 f67 ?v2))) (=> (= ?v0 ?v1) (=> (= (f18 ?v_0 ?v1) f1) (= (f18 ?v_0 ?v0) f1))))))
(assert (forall ((?v0 S4) (?v1 S4) (?v2 S4)) (let ((?v_0 (f4 f13 ?v2))) (=> (= ?v0 ?v1) (=> (= (f3 ?v_0 ?v1) f1) (= (f3 ?v_0 ?v0) f1))))))
(assert (forall ((?v0 S11) (?v1 S11) (?v2 S11)) (=> (= ?v0 ?v1) (=> (= (f18 (f19 f67 ?v1) ?v2) f1) (= (f18 (f19 f67 ?v0) ?v2) f1)))))
(assert (forall ((?v0 S4) (?v1 S4) (?v2 S4)) (=> (= ?v0 ?v1) (=> (= (f3 (f4 f13 ?v1) ?v2) f1) (= (f3 (f4 f13 ?v0) ?v2) f1)))))
(assert (forall ((?v0 S11) (?v1 S11)) (=> (= (f18 (f19 f67 ?v0) ?v1) f1) (=> (= (f18 (f19 f67 ?v1) ?v0) f1) false))))
(assert (forall ((?v0 S4) (?v1 S4)) (=> (= (f3 (f4 f13 ?v0) ?v1) f1) (=> (= (f3 (f4 f13 ?v1) ?v0) f1) false))))
(assert (forall ((?v0 S11) (?v1 S11)) (=> (= (f18 (f19 f67 ?v0) ?v1) f1) (=> (= (f18 (f19 f67 ?v1) ?v0) f1) false))))
(assert (forall ((?v0 S4) (?v1 S4)) (=> (= (f3 (f4 f13 ?v0) ?v1) f1) (=> (= (f3 (f4 f13 ?v1) ?v0) f1) false))))
(assert (forall ((?v0 S11) (?v1 S11) (?v2 S1)) (=> (= (f18 (f19 f67 ?v0) ?v1) f1) (= (=> (= (f18 (f19 f67 ?v1) ?v0) f1) (= ?v2 f1)) true))))
(assert (forall ((?v0 S4) (?v1 S4) (?v2 S1)) (=> (= (f3 (f4 f13 ?v0) ?v1) f1) (= (=> (= (f3 (f4 f13 ?v1) ?v0) f1) (= ?v2 f1)) true))))
(assert (forall ((?v0 S11) (?v1 S11)) (=> (= (f18 (f19 f67 ?v0) ?v1) f1) (= (= ?v1 ?v0) false))))
(assert (forall ((?v0 S4) (?v1 S4)) (=> (= (f3 (f4 f13 ?v0) ?v1) f1) (= (= ?v1 ?v0) false))))
(assert (forall ((?v0 S11) (?v1 S11)) (=> (= (f18 (f19 f67 ?v0) ?v1) f1) (= (= ?v0 ?v1) false))))
(assert (forall ((?v0 S4) (?v1 S4)) (=> (= (f3 (f4 f13 ?v0) ?v1) f1) (= (= ?v0 ?v1) false))))
(assert (forall ((?v0 S11) (?v1 S11)) (=> (= (f18 (f19 f67 ?v0) ?v1) f1) (= (not (= (f18 (f19 f67 ?v1) ?v0) f1)) true))))
(assert (forall ((?v0 S4) (?v1 S4)) (=> (= (f3 (f4 f13 ?v0) ?v1) f1) (= (not (= (f3 (f4 f13 ?v1) ?v0) f1)) true))))
(assert (forall ((?v0 S11) (?v1 S11)) (=> (= (f18 (f19 f67 ?v0) ?v1) f1) (not (= (f18 (f19 f67 ?v1) ?v0) f1)))))
(assert (forall ((?v0 S4) (?v1 S4)) (=> (= (f3 (f4 f13 ?v0) ?v1) f1) (not (= (f3 (f4 f13 ?v1) ?v0) f1)))))
(assert (forall ((?v0 S11) (?v1 S11)) (=> (= (f18 (f19 f67 ?v0) ?v1) f1) (not (= ?v0 ?v1)))))
(assert (forall ((?v0 S4) (?v1 S4)) (=> (= (f3 (f4 f13 ?v0) ?v1) f1) (not (= ?v0 ?v1)))))
(assert (forall ((?v0 S11) (?v1 S11)) (=> (not (= ?v0 ?v1)) (=> (=> (= (f18 (f19 f67 ?v0) ?v1) f1) false) (=> (=> (= (f18 (f19 f67 ?v1) ?v0) f1) false) false)))))
(assert (forall ((?v0 S4) (?v1 S4)) (=> (not (= ?v0 ?v1)) (=> (=> (= (f3 (f4 f13 ?v0) ?v1) f1) false) (=> (=> (= (f3 (f4 f13 ?v1) ?v0) f1) false) false)))))
(assert (forall ((?v0 S11) (?v1 S11)) (=> (not (= (f18 (f19 f67 ?v0) ?v1) f1)) (= (not (= (f18 (f19 f67 ?v1) ?v0) f1)) (= ?v1 ?v0)))))
(assert (forall ((?v0 S4) (?v1 S4)) (=> (not (= (f3 (f4 f13 ?v0) ?v1) f1)) (= (not (= (f3 (f4 f13 ?v1) ?v0) f1)) (= ?v1 ?v0)))))
(assert (forall ((?v0 S11) (?v1 S11)) (or (= (f18 (f19 f67 ?v0) ?v1) f1) (or (= ?v0 ?v1) (= (f18 (f19 f67 ?v1) ?v0) f1)))))
(assert (forall ((?v0 S4) (?v1 S4)) (or (= (f3 (f4 f13 ?v0) ?v1) f1) (or (= ?v0 ?v1) (= (f3 (f4 f13 ?v1) ?v0) f1)))))
(assert (forall ((?v0 S11) (?v1 S11)) (= (not (= (f18 (f19 f67 ?v0) ?v1) f1)) (or (= (f18 (f19 f67 ?v1) ?v0) f1) (= ?v0 ?v1)))))
(assert (forall ((?v0 S4) (?v1 S4)) (= (not (= (f3 (f4 f13 ?v0) ?v1) f1)) (or (= (f3 (f4 f13 ?v1) ?v0) f1) (= ?v0 ?v1)))))
(assert (forall ((?v0 S11) (?v1 S11)) (= (not (= ?v0 ?v1)) (or (= (f18 (f19 f67 ?v0) ?v1) f1) (= (f18 (f19 f67 ?v1) ?v0) f1)))))
(assert (forall ((?v0 S4) (?v1 S4)) (= (not (= ?v0 ?v1)) (or (= (f3 (f4 f13 ?v0) ?v1) f1) (= (f3 (f4 f13 ?v1) ?v0) f1)))))
(assert (forall ((?v0 S11)) (not (= (f18 (f19 f67 ?v0) ?v0) f1))))
(assert (forall ((?v0 S4)) (not (= (f3 (f4 f13 ?v0) ?v0) f1))))
(assert (forall ((?v0 S4) (?v1 S4)) (=> (= (f3 (f4 f5 ?v0) ?v1) f1) (=> (= (f3 (f4 f5 ?v1) ?v0) f1) (= ?v0 ?v1)))))
(assert (forall ((?v0 S4) (?v1 S4) (?v2 S4)) (let ((?v_0 (f4 f5 ?v0))) (=> (= (f3 ?v_0 ?v1) f1) (=> (= (f3 (f4 f5 ?v1) ?v2) f1) (= (f3 ?v_0 ?v2) f1))))))
(assert (forall ((?v0 S4) (?v1 S4)) (or (= (f3 (f4 f5 ?v0) ?v1) f1) (= (f3 (f4 f5 ?v1) ?v0) f1))))
(assert (forall ((?v0 S4)) (= (f3 (f4 f5 ?v0) ?v0) f1)))
(assert (forall ((?v0 S9) (?v1 S9)) (= (= (f10 f11 ?v0) (f10 f11 ?v1)) (= ?v0 ?v1))))
(assert (forall ((?v0 S27) (?v1 S27)) (= (= (f62 f63 ?v0) (f62 f63 ?v1)) (= ?v0 ?v1))))
(assert (forall ((?v0 S31) (?v1 S31)) (= (= (f59 f60 ?v0) (f59 f60 ?v1)) (= ?v0 ?v1))))
(assert (forall ((?v0 S22) (?v1 S22)) (= (= (f32 f33 ?v0) (f32 f33 ?v1)) (= ?v0 ?v1))))
(assert (forall ((?v0 S20) (?v1 S20)) (= (= (f28 f29 ?v0) (f28 f29 ?v1)) (= ?v0 ?v1))))
(assert (forall ((?v0 S11) (?v1 S11) (?v2 S11)) (let ((?v_0 (f19 f67 ?v2))) (=> (= (f18 (f19 f20 ?v0) ?v1) f1) (=> (= (f18 ?v_0 ?v0) f1) (= (f18 ?v_0 ?v1) f1))))))
(assert (forall ((?v0 S4) (?v1 S4) (?v2 S4)) (let ((?v_0 (f4 f13 ?v2))) (=> (= (f3 (f4 f5 ?v0) ?v1) f1) (=> (= (f3 ?v_0 ?v0) f1) (= (f3 ?v_0 ?v1) f1))))))
(assert (forall ((?v0 S11) (?v1 S11) (?v2 S11)) (=> (= (f18 (f19 f20 ?v0) ?v1) f1) (=> (= (f18 (f19 f67 ?v1) ?v2) f1) (= (f18 (f19 f67 ?v0) ?v2) f1)))))
(assert (forall ((?v0 S4) (?v1 S4) (?v2 S4)) (=> (= (f3 (f4 f5 ?v0) ?v1) f1) (=> (= (f3 (f4 f13 ?v1) ?v2) f1) (= (f3 (f4 f13 ?v0) ?v2) f1)))))
(assert (forall ((?v0 S11) (?v1 S11) (?v2 S11)) (=> (= (f18 (f19 f67 ?v0) ?v1) f1) (=> (= (f18 (f19 f20 ?v2) ?v0) f1) (= (f18 (f19 f67 ?v2) ?v1) f1)))))
(assert (forall ((?v0 S4) (?v1 S4) (?v2 S4)) (=> (= (f3 (f4 f13 ?v0) ?v1) f1) (=> (= (f3 (f4 f5 ?v2) ?v0) f1) (= (f3 (f4 f13 ?v2) ?v1) f1)))))
(assert (forall ((?v0 S11) (?v1 S11) (?v2 S11)) (let ((?v_0 (f19 f67 ?v0))) (=> (= (f18 ?v_0 ?v1) f1) (=> (= (f18 (f19 f20 ?v1) ?v2) f1) (= (f18 ?v_0 ?v2) f1))))))
(assert (forall ((?v0 S4) (?v1 S4) (?v2 S4)) (let ((?v_0 (f4 f13 ?v0))) (=> (= (f3 ?v_0 ?v1) f1) (=> (= (f3 (f4 f5 ?v1) ?v2) f1) (= (f3 ?v_0 ?v2) f1))))))
(assert (forall ((?v0 S11) (?v1 S11)) (=> (= (f18 (f19 f20 ?v0) ?v1) f1) (=> (not (= ?v1 ?v0)) (= (f18 (f19 f67 ?v0) ?v1) f1)))))
(assert (forall ((?v0 S4) (?v1 S4)) (=> (= (f3 (f4 f5 ?v0) ?v1) f1) (=> (not (= ?v1 ?v0)) (= (f3 (f4 f13 ?v0) ?v1) f1)))))
(assert (forall ((?v0 S11) (?v1 S11)) (=> (= (f18 (f19 f20 ?v0) ?v1) f1) (=> (not (= ?v0 ?v1)) (= (f18 (f19 f67 ?v0) ?v1) f1)))))
(assert (forall ((?v0 S4) (?v1 S4)) (=> (= (f3 (f4 f5 ?v0) ?v1) f1) (=> (not (= ?v0 ?v1)) (= (f3 (f4 f13 ?v0) ?v1) f1)))))
(assert (forall ((?v0 S11) (?v1 S11)) (=> (= (f18 (f19 f20 ?v0) ?v1) f1) (or (= (f18 (f19 f67 ?v0) ?v1) f1) (= ?v0 ?v1)))))
(assert (forall ((?v0 S4) (?v1 S4)) (=> (= (f3 (f4 f5 ?v0) ?v1) f1) (or (= (f3 (f4 f13 ?v0) ?v1) f1) (= ?v0 ?v1)))))
(assert (forall ((?v0 S11) (?v1 S11)) (=> (= (f18 (f19 f20 ?v0) ?v1) f1) (= (not (= (f18 (f19 f67 ?v0) ?v1) f1)) (= ?v0 ?v1)))))
(assert (forall ((?v0 S4) (?v1 S4)) (=> (= (f3 (f4 f5 ?v0) ?v1) f1) (= (not (= (f3 (f4 f13 ?v0) ?v1) f1)) (= ?v0 ?v1)))))
(assert (forall ((?v0 S11) (?v1 S11)) (=> (= (f18 (f19 f67 ?v0) ?v1) f1) (= (f18 (f19 f20 ?v0) ?v1) f1))))
(assert (forall ((?v0 S4) (?v1 S4)) (=> (= (f3 (f4 f13 ?v0) ?v1) f1) (= (f3 (f4 f5 ?v0) ?v1) f1))))
(assert (forall ((?v0 S11) (?v1 S11)) (=> (= (f18 (f19 f20 ?v0) ?v1) f1) (not (= (f18 (f19 f67 ?v1) ?v0) f1)))))
(assert (forall ((?v0 S4) (?v1 S4)) (=> (= (f3 (f4 f5 ?v0) ?v1) f1) (not (= (f3 (f4 f13 ?v1) ?v0) f1)))))
(assert (forall ((?v0 S11) (?v1 S11)) (=> (not (= ?v0 ?v1)) (=> (= (f18 (f19 f20 ?v1) ?v0) f1) (= (f18 (f19 f67 ?v1) ?v0) f1)))))
(assert (forall ((?v0 S4) (?v1 S4)) (=> (not (= ?v0 ?v1)) (=> (= (f3 (f4 f5 ?v1) ?v0) f1) (= (f3 (f4 f13 ?v1) ?v0) f1)))))
(assert (forall ((?v0 S11) (?v1 S11)) (=> (not (= ?v0 ?v1)) (=> (= (f18 (f19 f20 ?v0) ?v1) f1) (= (f18 (f19 f67 ?v0) ?v1) f1)))))
(assert (forall ((?v0 S4) (?v1 S4)) (=> (not (= ?v0 ?v1)) (=> (= (f3 (f4 f5 ?v0) ?v1) f1) (= (f3 (f4 f13 ?v0) ?v1) f1)))))
(assert (forall ((?v0 S11) (?v1 S11)) (=> (not (= (f18 (f19 f67 ?v0) ?v1) f1)) (= (= (f18 (f19 f20 ?v0) ?v1) f1) (= ?v0 ?v1)))))
(assert (forall ((?v0 S4) (?v1 S4)) (=> (not (= (f3 (f4 f13 ?v0) ?v1) f1)) (= (= (f3 (f4 f5 ?v0) ?v1) f1) (= ?v0 ?v1)))))
(assert (forall ((?v0 S11) (?v1 S11)) (=> (not (= (f18 (f19 f20 ?v0) ?v1) f1)) (= (f18 (f19 f67 ?v1) ?v0) f1))))
(assert (forall ((?v0 S4) (?v1 S4)) (=> (not (= (f3 (f4 f5 ?v0) ?v1) f1)) (= (f3 (f4 f13 ?v1) ?v0) f1))))
(assert (forall ((?v0 S11) (?v1 S11)) (=> (not (= (f18 (f19 f67 ?v0) ?v1) f1)) (= (f18 (f19 f20 ?v1) ?v0) f1))))
(assert (forall ((?v0 S4) (?v1 S4)) (=> (not (= (f3 (f4 f13 ?v0) ?v1) f1)) (= (f3 (f4 f5 ?v1) ?v0) f1))))
(assert (forall ((?v0 S11) (?v1 S11)) (= (= (f18 (f19 f20 ?v0) ?v1) f1) (or (= (f18 (f19 f67 ?v0) ?v1) f1) (= ?v0 ?v1)))))
(assert (forall ((?v0 S4) (?v1 S4)) (= (= (f3 (f4 f5 ?v0) ?v1) f1) (or (= (f3 (f4 f13 ?v0) ?v1) f1) (= ?v0 ?v1)))))
(assert (forall ((?v0 S11) (?v1 S11)) (= (= (f18 (f19 f67 ?v0) ?v1) f1) (and (= (f18 (f19 f20 ?v0) ?v1) f1) (not (= (f18 (f19 f20 ?v1) ?v0) f1))))))
(assert (forall ((?v0 S4) (?v1 S4)) (= (= (f3 (f4 f13 ?v0) ?v1) f1) (and (= (f3 (f4 f5 ?v0) ?v1) f1) (not (= (f3 (f4 f5 ?v1) ?v0) f1))))))
(assert (forall ((?v0 S11) (?v1 S11)) (= (= (f18 (f19 f67 ?v0) ?v1) f1) (and (= (f18 (f19 f20 ?v0) ?v1) f1) (not (= ?v0 ?v1))))))
(assert (forall ((?v0 S4) (?v1 S4)) (= (= (f3 (f4 f13 ?v0) ?v1) f1) (and (= (f3 (f4 f5 ?v0) ?v1) f1) (not (= ?v0 ?v1))))))
(assert (forall ((?v0 S11) (?v1 S11)) (or (= (f18 (f19 f20 ?v0) ?v1) f1) (= (f18 (f19 f67 ?v1) ?v0) f1))))
(assert (forall ((?v0 S4) (?v1 S4)) (or (= (f3 (f4 f5 ?v0) ?v1) f1) (= (f3 (f4 f13 ?v1) ?v0) f1))))
(assert (forall ((?v0 S11) (?v1 S11)) (= (not (= (f18 (f19 f20 ?v0) ?v1) f1)) (= (f18 (f19 f67 ?v1) ?v0) f1))))
(assert (forall ((?v0 S4) (?v1 S4)) (= (not (= (f3 (f4 f5 ?v0) ?v1) f1)) (= (f3 (f4 f13 ?v1) ?v0) f1))))
(assert (forall ((?v0 S4) (?v1 S4)) (let ((?v_0 (f4 f13 f14))) (=> (= (f3 ?v_0 ?v0) f1) (=> (= (f3 ?v_0 ?v1) f1) (exists ((?v2 S4)) (let ((?v_1 (f4 f13 ?v2))) (and (= (f3 ?v_0 ?v2) f1) (and (= (f3 ?v_1 ?v0) f1) (= (f3 ?v_1 ?v1) f1))))))))))
(assert (forall ((?v0 S4) (?v1 S4) (?v2 S4)) (=> (= (f3 (f4 f13 ?v0) ?v1) f1) (=> (forall ((?v3 S4)) (=> (= (f3 (f4 f13 ?v0) ?v3) f1) (=> (= (f3 (f4 f13 ?v3) ?v1) f1) (= (f3 (f4 f5 ?v3) ?v2) f1)))) (= (f3 (f4 f5 ?v1) ?v2) f1)))))
(assert (forall ((?v0 S4) (?v1 S4)) (=> (forall ((?v2 S4)) (=> (= (f3 (f4 f13 ?v2) ?v0) f1) (= (f3 (f4 f5 ?v2) ?v1) f1))) (= (f3 (f4 f5 ?v0) ?v1) f1))))
(assert (forall ((?v0 S9) (?v1 S2)) (= (= (f9 (f10 f11 ?v0) ?v1) f17) (or (= ?v0 f21) (not (= (f68 (f69 f70 ?v1) ?v0) f26))))))
(assert (forall ((?v0 S20) (?v1 S17)) (= (= (f27 (f28 f29 ?v0) ?v1) f31) (or (= ?v0 f30) (not (= (f71 (f72 f73 ?v1) ?v0) f26))))))
(assert (forall ((?v0 S22) (?v1 S4)) (= (= (f15 (f32 f33 ?v0) ?v1) f14) (or (= ?v0 f34) (not (= (f74 (f75 f76 ?v1) ?v0) f26))))))
(assert (forall ((?v0 S26) (?v1 S23)) (= (= (f35 (f36 f37 ?v0) ?v1) f39) (or (= ?v0 f38) (not (= (f77 (f78 f79 ?v1) ?v0) f26))))))
(assert (forall ((?v0 S30) (?v1 S27)) (= (= (f40 (f41 f42 ?v0) ?v1) f44) (or (= ?v0 f43) (not (= (f80 (f81 f82 ?v1) ?v0) f26))))))
(assert (forall ((?v0 S34) (?v1 S31)) (= (= (f45 (f46 f47 ?v0) ?v1) f49) (or (= ?v0 f48) (not (= (f83 (f84 f85 ?v1) ?v0) f26))))))
(assert (forall ((?v0 S31) (?v1 S22)) (= (= (f58 (f59 f60 ?v0) ?v1) f34) (or (= ?v0 f49) (not (= (f86 (f87 f88 ?v1) ?v0) f26))))))
(assert (forall ((?v0 S27) (?v1 S20)) (= (= (f61 (f62 f63 ?v0) ?v1) f30) (or (= ?v0 f44) (not (= (f89 (f90 f91 ?v1) ?v0) f26))))))
(assert (forall ((?v0 S23) (?v1 S9)) (= (= (f64 (f65 f66 ?v0) ?v1) f21) (or (= ?v0 f39) (not (= (f92 (f93 f94 ?v1) ?v0) f26))))))
(assert (forall ((?v0 S23)) (= (= (f92 f95 ?v0) f26) (= ?v0 f39))))
(assert (forall ((?v0 S27)) (= (= (f89 f96 ?v0) f26) (= ?v0 f44))))
(assert (forall ((?v0 S31)) (= (= (f86 f97 ?v0) f26) (= ?v0 f49))))
(assert (forall ((?v0 S35)) (= (= (f98 f99 ?v0) f26) (= ?v0 f54))))
(assert (forall ((?v0 S16)) (= (= (f100 f101 ?v0) f26) (= ?v0 f25))))
(assert (forall ((?v0 S22)) (= (= (f74 f102 ?v0) f26) (= ?v0 f34))))
(assert (forall ((?v0 S20)) (= (= (f71 f103 ?v0) f26) (= ?v0 f30))))
(assert (forall ((?v0 S9)) (= (= (f68 f104 ?v0) f26) (= ?v0 f21))))
(assert (forall ((?v0 S3)) (=> (exists ((?v1 S4)) (= (f3 ?v0 ?v1) f1)) (=> (exists ((?v1 S4)) (forall ((?v2 S4)) (=> (= (f3 ?v0 ?v2) f1) (= (f3 (f4 f13 ?v2) ?v1) f1)))) (exists ((?v1 S4)) (forall ((?v2 S4)) (= (exists ((?v3 S4)) (and (= (f3 ?v0 ?v3) f1) (= (f3 (f4 f13 ?v2) ?v3) f1))) (= (f3 (f4 f13 ?v2) ?v1) f1))))))))
(assert (forall ((?v0 S4)) (exists ((?v1 S4)) (= (f3 (f4 f13 ?v0) ?v1) f1))))
(assert (forall ((?v0 S11)) (= (f18 (f19 f20 f26) ?v0) f1)))
(assert (forall ((?v0 S11)) (=> (= (f18 (f19 f67 ?v0) f26) f1) false)))
(assert (forall ((?v0 S11) (?v1 S14) (?v2 S11) (?v3 S11)) (=> (= ?v0 (f22 ?v1 ?v2)) (=> (= (f18 (f19 f67 ?v3) ?v2) f1) (=> (forall ((?v4 S11) (?v5 S11)) (=> (= (f18 (f19 f67 ?v5) ?v4) f1) (= (f18 (f19 f67 (f22 ?v1 ?v5)) (f22 ?v1 ?v4)) f1))) (= (f18 (f19 f67 (f22 ?v1 ?v3)) ?v0) f1))))))
(assert (forall ((?v0 S4) (?v1 S10) (?v2 S4) (?v3 S4)) (=> (= ?v0 (f15 ?v1 ?v2)) (=> (= (f3 (f4 f13 ?v3) ?v2) f1) (=> (forall ((?v4 S4) (?v5 S4)) (=> (= (f3 (f4 f13 ?v5) ?v4) f1) (= (f3 (f4 f13 (f15 ?v1 ?v5)) (f15 ?v1 ?v4)) f1))) (= (f3 (f4 f13 (f15 ?v1 ?v3)) ?v0) f1))))))
(assert (forall ((?v0 S11) (?v1 S11)) (= (= (f18 (f19 f67 ?v0) ?v1) f1) (and (= (f18 (f19 f20 ?v0) ?v1) f1) (not (= ?v0 ?v1))))))
(assert (forall ((?v0 S11) (?v1 S11)) (= (= (f18 (f19 f20 ?v0) ?v1) f1) (or (= (f18 (f19 f67 ?v0) ?v1) f1) (= ?v0 ?v1)))))
(assert (forall ((?v0 S11) (?v1 S11)) (=> (= (f18 (f19 f67 ?v0) ?v1) f1) (= (f18 (f19 f20 ?v0) ?v1) f1))))
(assert (forall ((?v0 S11) (?v1 S11)) (=> (= (f18 (f19 f20 ?v0) ?v1) f1) (=> (not (= ?v0 ?v1)) (= (f18 (f19 f67 ?v0) ?v1) f1)))))
(assert (forall ((?v0 S11) (?v1 S11)) (=> (or (= (f18 (f19 f67 ?v0) ?v1) f1) (= ?v0 ?v1)) (= (f18 (f19 f20 ?v0) ?v1) f1))))
(assert (forall ((?v0 S11) (?v1 S11) (?v2 S13)) (let ((?v_0 (= (f18 (f19 ?v2 ?v1) ?v0) f1))) (=> (=> (= (f18 (f19 f67 ?v0) ?v1) f1) ?v_0) (=> (=> (= ?v0 ?v1) ?v_0) (=> (=> (= (f18 (f19 f67 ?v1) ?v0) f1) ?v_0) ?v_0))))))
(assert (forall ((?v0 S11) (?v1 S11)) (=> (= (f18 (f19 f67 ?v0) ?v1) f1) (not (= ?v0 ?v1)))))
(assert (forall ((?v0 S11) (?v1 S11)) (=> (= (f18 (f19 f67 ?v0) ?v1) f1) (not (= ?v1 ?v0)))))
(assert (forall ((?v0 S11)) (=> (= (f18 (f19 f67 ?v0) ?v0) f1) false)))
(assert (forall ((?v0 S11) (?v1 S11)) (=> (not (= ?v0 ?v1)) (=> (=> (= (f18 (f19 f67 ?v0) ?v1) f1) false) (=> (=> (= (f18 (f19 f67 ?v1) ?v0) f1) false) false)))))
(assert (forall ((?v0 S11) (?v1 S11)) (= (not (= ?v0 ?v1)) (or (= (f18 (f19 f67 ?v0) ?v1) f1) (= (f18 (f19 f67 ?v1) ?v0) f1)))))
(assert (forall ((?v0 S11)) (not (= (f18 (f19 f67 ?v0) ?v0) f1))))
(assert (forall ((?v0 S11) (?v1 S11)) (=> (= (f18 (f19 f20 ?v0) ?v1) f1) (=> (= (f18 (f19 f20 ?v1) ?v0) f1) (= ?v0 ?v1)))))
(assert (forall ((?v0 S11) (?v1 S11) (?v2 S11)) (let ((?v_0 (f19 f20 ?v0))) (=> (= (f18 ?v_0 ?v1) f1) (=> (= (f18 (f19 f20 ?v1) ?v2) f1) (= (f18 ?v_0 ?v2) f1))))))
(assert (forall ((?v0 S11) (?v1 S11)) (=> (= ?v0 ?v1) (= (f18 (f19 f20 ?v0) ?v1) f1))))
(assert (forall ((?v0 S11) (?v1 S11)) (or (= (f18 (f19 f20 ?v0) ?v1) f1) (= (f18 (f19 f20 ?v1) ?v0) f1))))
(assert (forall ((?v0 S11)) (= (f18 (f19 f20 ?v0) ?v0) f1)))
(assert (forall ((?v0 S11)) (not (= (f18 (f19 f67 ?v0) f26) f1))))
(assert (forall ((?v0 S11)) (= (not (= ?v0 f26)) (= (f18 (f19 f67 f26) ?v0) f1))))
(assert (forall ((?v0 S11)) (= (= (f18 (f19 f67 ?v0) f26) f1) false)))
(assert (forall ((?v0 S11) (?v1 S11)) (=> (= (f18 (f19 f67 ?v0) ?v1) f1) (not (= ?v1 f26)))))
(assert (forall ((?v0 S11)) (=> (=> (= ?v0 f26) false) (= (f18 (f19 f67 f26) ?v0) f1))))
(assert (forall ((?v0 S11)) (= (= (f18 (f19 f20 ?v0) f26) f1) (= ?v0 f26))))
(assert (forall ((?v0 S11)) (= (= (f18 (f19 f20 f26) ?v0) f1) true)))
(assert (forall ((?v0 S12) (?v1 S11)) (=> (not (= (f18 ?v0 f26) f1)) (=> (= (f18 ?v0 ?v1) f1) (exists ((?v2 S11)) (and (= (f18 (f19 f20 ?v2) ?v1) f1) (and (forall ((?v3 S11)) (=> (= (f18 (f19 f67 ?v3) ?v2) f1) (not (= (f18 ?v0 ?v3) f1)))) (= (f18 ?v0 ?v2) f1))))))))
(check-sat)
(exit)
